50
150
97
95
92
91
90
90
86
85
85
82
82
81
80
79
78
76
71
70
69
67
63
63
63
62
58
58
56
55
54
53
52
51
51
48
47
46
44
44
42
42
41
40
39
39
37
35
34
32
31
31
